NAME: instance_2160
TYPE: TSP
DIMENSION: 20
EDGE_WEIGHT_TYPE: EUC_2D
NODE_COORD_SECTION
0 87.89 95.75
1 32.55 79.66
2 96.79 11.39
3 80.47 65.59
4 35.08 19.07
5 50.96 0.31
6 1.72 69.76
7 57.27 73.86
8 54.96 28.57
9 90.88 48.86
10 63.33 7.22
11 16.45 31.66
12 9.96 95.47
13 32.38 53.42
14 61.05 56.99
15 28.49 11.43
16 61.46 54.64
17 60.48 12.10
18 69.53 10.69
19 28.74 21.43
EOF
